TravelingSalesmanProblem_Contestabile/singolo16.log

Gurobi 9.5.1 (mac64[x86], Java) logging started Wed Jun  8 21:18:35 2022

Set parameter Username
Academic license - for non-commercial use only - expires 2023-02-25
Set parameter PoolSearchMode to value 2
Set parameter PoolGap to value 0.1
